
Gurobi 13.0.2 (win64) logging started Thu Jul 23 17:26:56 2026

Set parameter LogFile to value "E:\codes\ExactEBRP\results\gf_gurobi_performance_recovery_round29\runs\stage2__tight_T_seed5103__c3_replica__300s\external\native_logs\R.0.1.1.0.0.0.1.0.1.1_terminal_mip.gurobi.log"
Gurobi Optimizer version 13.0.2 build v13.0.2rc1 (win64 - Windows 10.0 (19045.2))

CPU model: 12th Gen Intel(R) Core(TM) i7-12700KF, instruction set [SSE2|AVX|AVX2]
Thread count: 12 physical cores, 20 logical processors, using up to 1 threads

Non-default parameters:
TimeLimit  157.4997418
MIPGap  0
MIPGapAbs  0
LogToConsole  0
Threads  1

Optimize a model with 11911 rows, 3376 columns and 67363 nonzeros (Min)
Model fingerprint: 0x12b9f31c
Model has 21 linear objective coefficients
Variable types: 1685 continuous, 1691 integer (1491 binary)
Coefficient statistics:
  Matrix range     [7e-03, 2e+04]
  Objective range  [7e-03, 1e+00]
  Bounds range     [1e-01, 3e+02]
  RHS range        [5e-02, 5e+04]

Presolve removed 1638 rows and 116 columns
Presolve time: 0.21s
Presolved: 10273 rows, 3260 columns, 68591 nonzeros
Variable types: 1625 continuous, 1635 integer (1453 binary)

Root relaxation: objective 1.658036e-01, 3878 iterations, 0.20 seconds (0.52 work units)

    Nodes    |    Current Node    |     Objective Bounds      |     Work
 Expl Unexpl |  Obj  Depth IntInf | Incumbent    BestBd   Gap | It/Node Time

     0     0    0.16580    0  184          -    0.16580      -     -    0s
     0     0    0.17661    0  204          -    0.17661      -     -    0s
     0     0 infeasible    0               - infeasible      -     -    1s

Cutting planes:
  Learned: 3
  Gomory: 11
  Cover: 23
  Implied bound: 134
  Clique: 14
  MIR: 285
  StrongCG: 10
  Flow cover: 48
  GUB cover: 2
  Zero half: 6
  Network: 14
  RLT: 11
  Relax-and-lift: 38
  BQP: 25
  PSD: 2

Explored 1 nodes (7457 simplex iterations) in 1.38 seconds (2.86 work units)
Thread count was 1 (of 20 available processors)

Solution count 0

Model is infeasible
Best objective -, best bound -, gap -

User-callback calls 996, time in user-callback 0.00 sec
